64107 59879 
63397 60397 
65094 58671 
63062 60641 
64644 59144 
65161 58117 
65265 57936 
62456 60991 
65113 58225 
64370 59467 
63945 59953 
65740 56802 
65310 57636 
65197 57976 
64146 59805 
61453 61482 
64291 59549 
64262 59706 
64749 58884 
65604 57185 
62267 61077 
61447 61552 
61958 61285 
61071 61676 
61343 61629 
61504 61463 
62782 60947 
62125 61277 
61953 61396 
62160 61137 
62383 60999 
60486 61864 
60578 61863 
59859 62032 
60314 61983 
60579 61723 
64590 59315 
63866 60111 
62983 60799 
63608 60280 
65128 58119 
63328 60586 
64638 59214 
65542 57332 
65390 57447 
